param Data := 
  1 1 1 1
  1 4 2 1
  1 7 3 1
  2 2 2 1
  2 5 3 1
  2 8 4 1
  3 3 3 1
  3 6 4 1
  3 9 5 1
  4 1 6 1
  4 4 4 1
  4 7 5 1
  5 2 7 1
  5 5 5 1
  5 8 6 1
  6 3 8 1
  6 6 6 1
  6 9 7 1
  7 1 8 1
  7 4 9 1
  7 7 7 1
  8 2 9 1
  8 5 1 1
  8 8 8 1
  9 3 1 1
  9 6 2 1
  9 9 4 1;
